LPFile/20_4_microliter/20_4_microliter_0.lp
Minimize
   z: 150 quantity_e_0_0 + 153 quantity_e_1_0 + 50 quantity_e_2_0 + 125 quantity_e_3_0 + 139 quantity_e_4_0 + 187 quantity_e_5_0 + 119 quantity_e_6_0 + 173 quantity_e_7_0 + 203 quantity_e_8_0 + 38 quantity_e_9_0 + 116 quantity_e_10_0 + 146 quantity_e_11_0 + 175 quantity_e_12_0 + 225 quantity_e_13_0 + 188 quantity_e_14_0 + 247 quantity_e_15_0 + 109 quantity_e_16_0 - 13 quantity_e_17_0 + 273 quantity_e_18_0 + 201 quantity_e_19_0 + 175 quantity_e_20_0 + 75 quantity_e_21_0 + 63 quantity_e_22_0 + 15 quantity_e_23_0 + 181 quantity_e_24_0 + 79 quantity_e_25_0 + 0 quantity_e_26_0 + 113 quantity_e_27_0 + 50 quantity_e_28_0 + 111 quantity_e_29_0 + 70 quantity_e_30_0 + 146 quantity_e_31_0 + 116 quantity_e_32_0 + 58 quantity_e_33_0 + 37 quantity_e_34_0 + 54 quantity_e_35_0 + 44 quantity_e_36_0 + 35 quantity_e_37_0 + 107 quantity_e_38_0 + 60 quantity_e_39_0 + 23 quantity_e_40_0 + 1 quantity_e_41_0 + 163 quantity_e_42_0 + 221 quantity_e_43_0 + 47 quantity_e_44_0 + 1 quantity_e_45_0 + 52 quantity_e_46_0 + 96 quantity_e_47_0 + 97 quantity_e_48_0 + 48 quantity_e_49_0 - 12 quantity_e_50_0 + 111 quantity_e_51_0 + 138 quantity_e_52_0 + 59 quantity_e_53_0 + 189 quantity_e_54_0 + 203 quantity_e_55_0 + 117 quantity_e_56_0 + 98 quantity_e_57_0 + 15 quantity_e_58_0 + 172 quantity_e_59_0
Subject to
   contraite_2_0: quantity_e_9_0 - quantity_e_8_0 = 67
   contraite_5_0: quantity_e_8_0 + quantity_e_19_0 - quantity_e_9_0 - quantity_e_18_0 = 3087
   contraite_19_0: quantity_e_14_0 + quantity_e_18_0 + quantity_e_52_0 - quantity_e_15_0 - quantity_e_19_0 - quantity_e_53_0 = 1026
   contraite_9_0: quantity_e_6_0 + quantity_e_33_0 + quantity_e_35_0 - quantity_e_7_0 - quantity_e_32_0 - quantity_e_34_0 = 1101
   contraite_18_0: quantity_e_57_0 - quantity_e_56_0 <= 904
   contraite_4_0: quantity_e_16_0 - quantity_e_17_0 <= 2846
   contraite_0_0: quantity_e_0_0 + quantity_e_2_0 - quantity_e_1_0 - quantity_e_3_0 <= 1078
   contraite_8_0: quantity_e_3_0 + quantity_e_25_0 + quantity_e_28_0 + quantity_e_30_0 - quantity_e_2_0 - quantity_e_24_0 - quantity_e_29_0 - quantity_e_31_0 <= 459
   contraite_1_0: quantity_e_5_0 + quantity_e_7_0 - quantity_e_4_0 - quantity_e_6_0 = 0
   contraite_3_0: quantity_e_11_0 + quantity_e_13_0 + quantity_e_15_0 - quantity_e_10_0 - quantity_e_12_0 - quantity_e_14_0 = 0
   contraite_6_0: quantity_e_21_0 + quantity_e_23_0 - quantity_e_20_0 - quantity_e_22_0 = 0
   contraite_7_0: quantity_e_4_0 + quantity_e_16_0 + quantity_e_25_0 + quantity_e_27_0 - quantity_e_5_0 - quantity_e_17_0 - quantity_e_24_0 - quantity_e_26_0 = 0
   contraite_10_0: quantity_e_28_0 + quantity_e_37_0 + quantity_e_39_0 + quantity_e_41_0 - quantity_e_29_0 - quantity_e_36_0 - quantity_e_38_0 - quantity_e_40_0 = 0
   contraite_11_0: quantity_e_12_0 + quantity_e_22_0 + quantity_e_43_0 + quantity_e_45_0 - quantity_e_13_0 - quantity_e_23_0 - quantity_e_42_0 - quantity_e_44_0 = 0
   contraite_12_0: quantity_e_26_0 + quantity_e_47_0 + quantity_e_49_0 - quantity_e_27_0 - quantity_e_46_0 - quantity_e_48_0 = 0
   contraite_13_0: quantity_e_20_0 + quantity_e_32_0 + quantity_e_44_0 - quantity_e_21_0 - quantity_e_33_0 - quantity_e_45_0 = 0
   contraite_14_0: quantity_e_0_0 + quantity_e_34_0 + quantity_e_36_0 + quantity_e_38_0 + quantity_e_51_0 + quantity_e_53_0 - quantity_e_1_0 - quantity_e_35_0 - quantity_e_37_0 - quantity_e_39_0 - quantity_e_50_0 - quantity_e_52_0 = 0
   contraite_15_0: quantity_e_10_0 + quantity_e_30_0 + quantity_e_42_0 + quantity_e_50_0 + quantity_e_55_0 + quantity_e_57_0 - quantity_e_11_0 - quantity_e_31_0 - quantity_e_43_0 - quantity_e_51_0 - quantity_e_54_0 - quantity_e_56_0 = 0
   contraite_16_0: quantity_e_40_0 + quantity_e_54_0 + quantity_e_59_0 - quantity_e_41_0 - quantity_e_55_0 - quantity_e_58_0 = 0
   contraite_17_0: quantity_e_46_0 + quantity_e_48_0 + quantity_e_58_0 - quantity_e_47_0 - quantity_e_49_0 - quantity_e_59_0 = 0
Bounds
   quantity_e_0_0 >= 0
   quantity_e_1_0 >= 0
   quantity_e_2_0 >= 0
   quantity_e_3_0 >= 0
   quantity_e_4_0 >= 0
   quantity_e_5_0 >= 0
   quantity_e_6_0 >= 0
   quantity_e_7_0 >= 0
   quantity_e_8_0 >= 0
   quantity_e_9_0 >= 0
   quantity_e_10_0 >= 0
   quantity_e_11_0 >= 0
   quantity_e_12_0 >= 0
   quantity_e_13_0 >= 0
   quantity_e_14_0 >= 0
   quantity_e_15_0 >= 0
   quantity_e_16_0 >= 0
   quantity_e_17_0 >= 0
   quantity_e_18_0 >= 0
   quantity_e_19_0 >= 0
   quantity_e_20_0 >= 0
   quantity_e_21_0 >= 0
   quantity_e_22_0 >= 0
   quantity_e_23_0 >= 0
   quantity_e_24_0 >= 0
   quantity_e_25_0 >= 0
   quantity_e_26_0 >= 0
   quantity_e_27_0 >= 0
   quantity_e_28_0 >= 0
   quantity_e_29_0 >= 0
   quantity_e_30_0 >= 0
   quantity_e_31_0 >= 0
   quantity_e_32_0 >= 0
   quantity_e_33_0 >= 0
   quantity_e_34_0 >= 0
   quantity_e_35_0 >= 0
   quantity_e_36_0 >= 0
   quantity_e_37_0 >= 0
   quantity_e_38_0 >= 0
   quantity_e_39_0 >= 0
   quantity_e_40_0 >= 0
   quantity_e_41_0 >= 0
   quantity_e_42_0 >= 0
   quantity_e_43_0 >= 0
   quantity_e_44_0 >= 0
   quantity_e_45_0 >= 0
   quantity_e_46_0 >= 0
   quantity_e_47_0 >= 0
   quantity_e_48_0 >= 0
   quantity_e_49_0 >= 0
   quantity_e_50_0 >= 0
   quantity_e_51_0 >= 0
   quantity_e_52_0 >= 0
   quantity_e_53_0 >= 0
   quantity_e_54_0 >= 0
   quantity_e_55_0 >= 0
   quantity_e_56_0 >= 0
   quantity_e_57_0 >= 0
   quantity_e_58_0 >= 0
   quantity_e_59_0 >= 0
Integer
   quantity_e_0_0
   quantity_e_1_0
   quantity_e_2_0
   quantity_e_3_0
   quantity_e_4_0
   quantity_e_5_0
   quantity_e_6_0
   quantity_e_7_0
   quantity_e_8_0
   quantity_e_9_0
   quantity_e_10_0
   quantity_e_11_0
   quantity_e_12_0
   quantity_e_13_0
   quantity_e_14_0
   quantity_e_15_0
   quantity_e_16_0
   quantity_e_17_0
   quantity_e_18_0
   quantity_e_19_0
   quantity_e_20_0
   quantity_e_21_0
   quantity_e_22_0
   quantity_e_23_0
   quantity_e_24_0
   quantity_e_25_0
   quantity_e_26_0
   quantity_e_27_0
   quantity_e_28_0
   quantity_e_29_0
   quantity_e_30_0
   quantity_e_31_0
   quantity_e_32_0
   quantity_e_33_0
   quantity_e_34_0
   quantity_e_35_0
   quantity_e_36_0
   quantity_e_37_0
   quantity_e_38_0
   quantity_e_39_0
   quantity_e_40_0
   quantity_e_41_0
   quantity_e_42_0
   quantity_e_43_0
   quantity_e_44_0
   quantity_e_45_0
   quantity_e_46_0
   quantity_e_47_0
   quantity_e_48_0
   quantity_e_49_0
   quantity_e_50_0
   quantity_e_51_0
   quantity_e_52_0
   quantity_e_53_0
   quantity_e_54_0
   quantity_e_55_0
   quantity_e_56_0
   quantity_e_57_0
   quantity_e_58_0
   quantity_e_59_0
End