LPFile/20_4_microliter/20_4_microliter_0.sol
Problem:    
Rows:       20
Columns:    60 (60 integer, 0 binary)
Non-zeros:  120
Status:     INTEGER OPTIMAL
Objective:  z = 2714911 (MINimum)

   No.   Row name        Activity     Lower bound   Upper bound
------ ------------    ------------- ------------- -------------
     1 contraite_2_0
                                  67            67             = 
     2 contraite_5_0
                                3087          3087             = 
     3 contraite_19_0
                                1026          1026             = 
     4 contraite_9_0
                                1101          1101             = 
     5 contraite_18_0
                                 904                         904 
     6 contraite_4_0
                                2840                        2846 
     7 contraite_0_0
                                1078                        1078 
     8 contraite_8_0
                                 459                         459 
     9 contraite_1_0
                                   0             0             = 
    10 contraite_3_0
                                   0             0             = 
    11 contraite_6_0
                                   0             0             = 
    12 contraite_7_0
                                   0             0             = 
    13 contraite_10_0
                                   0             0             = 
    14 contraite_11_0
                                   0             0             = 
    15 contraite_12_0
                                   0             0             = 
    16 contraite_13_0
                                   0             0             = 
    17 contraite_14_0
                                   0             0             = 
    18 contraite_15_0
                                   0             0             = 
    19 contraite_16_0
                                   0             0             = 
    20 contraite_17_0
                                   0             0             = 

   No. Column name       Activity     Lower bound   Upper bound
------ ------------    ------------- ------------- -------------
     1 quantity_e_0_0
                    *              0             0               
     2 quantity_e_1_0
                    *              0             0               
     3 quantity_e_2_0
                    *           1078             0               
     4 quantity_e_3_0
                    *              0             0               
     5 quantity_e_4_0
                    *              0             0               
     6 quantity_e_5_0
                    *           1101             0               
     7 quantity_e_6_0
                    *           1101             0               
     8 quantity_e_7_0
                    *              0             0               
     9 quantity_e_8_0
                    *              0             0               
    10 quantity_e_9_0
                    *             67             0               
    11 quantity_e_10_0
                    *              0             0               
    12 quantity_e_11_0
                    *              0             0               
    13 quantity_e_12_0
                    *              0             0               
    14 quantity_e_13_0
                    *              0             0               
    15 quantity_e_14_0
                    *              0             0               
    16 quantity_e_15_0
                    *              0             0               
    17 quantity_e_16_0
                    *           2840             0               
    18 quantity_e_17_0
                    *              0             0               
    19 quantity_e_18_0
                    *              0             0               
    20 quantity_e_19_0
                    *           3154             0               
    21 quantity_e_20_0
                    *              0             0               
    22 quantity_e_21_0
                    *              0             0               
    23 quantity_e_22_0
                    *              0             0               
    24 quantity_e_23_0
                    *              0             0               
    25 quantity_e_24_0
                    *              0             0               
    26 quantity_e_25_0
                    *              0             0               
    27 quantity_e_26_0
                    *           1739             0               
    28 quantity_e_27_0
                    *              0             0               
    29 quantity_e_28_0
                    *           1537             0               
    30 quantity_e_29_0
                    *              0             0               
    31 quantity_e_30_0
                    *              0             0               
    32 quantity_e_31_0
                    *              0             0               
    33 quantity_e_32_0
                    *              0             0               
    34 quantity_e_33_0
                    *              0             0               
    35 quantity_e_34_0
                    *              0             0               
    36 quantity_e_35_0
                    *              0             0               
    37 quantity_e_36_0
                    *           3276             0               
    38 quantity_e_37_0
                    *              0             0               
    39 quantity_e_38_0
                    *              0             0               
    40 quantity_e_39_0
                    *              0             0               
    41 quantity_e_40_0
                    *              0             0               
    42 quantity_e_41_0
                    *           1739             0               
    43 quantity_e_42_0
                    *              0             0               
    44 quantity_e_43_0
                    *              0             0               
    45 quantity_e_44_0
                    *              0             0               
    46 quantity_e_45_0
                    *              0             0               
    47 quantity_e_46_0
                    *           1739             0               
    48 quantity_e_47_0
                    *              0             0               
    49 quantity_e_48_0
                    *              0             0               
    50 quantity_e_49_0
                    *              0             0               
    51 quantity_e_50_0
                    *              0             0               
    52 quantity_e_51_0
                    *            904             0               
    53 quantity_e_52_0
                    *           4180             0               
    54 quantity_e_53_0
                    *              0             0               
    55 quantity_e_54_0
                    *              0             0               
    56 quantity_e_55_0
                    *              0             0               
    57 quantity_e_56_0
                    *              0             0               
    58 quantity_e_57_0
                    *            904             0               
    59 quantity_e_58_0
                    *              0             0               
    60 quantity_e_59_0
                    *           1739             0               

Integer feasibility conditions:

KKT.PE: max.abs.err = 0.00e+00 on row 0
        max.rel.err = 0.00e+00 on row 0
        High quality

KKT.PB: max.abs.err = 0.00e+00 on row 0
        max.rel.err = 0.00e+00 on row 0
        High quality

End of output
